NAME: random-21-7984
TYPE: TSP
COMMENT: size=21 seed=7984
DIMENSION: 44
EDGE_WEIGHT_TYPE: EUC_2D
NODE_COORD_SECTION
+0 88 666
-0 88 666
+1 429 692
-1 671 212
+2 551 742
-2 493 251
+3 930 756
-3 586 789
+4 142 869
-4 93 357
+5 701 795
-5 462 572
+6 555 790
-6 518 212
+7 257 734
-7 52 789
+8 343 162
-8 268 732
+9 986 383
-9 672 212
+10 644 180
-10 169 566
+11 193 820
-11 178 783
+12 377 140
-12 991 894
+13 666 378
-13 716 297
+14 68 462
-14 947 51
+15 814 228
-15 282 707
+16 765 231
-16 140 44
+17 150 636
-17 173 602
+18 676 927
-18 997 900
+19 728 271
-19 87 893
+20 137 496
-20 414 72
+21 724 58
-21 254 759
PRECEDENCE_SECTION
+0 -0
+1 -1
+2 -2
+3 -3
+4 -4
+5 -5
+6 -6
+7 -7
+8 -8
+9 -9
+10 -10
+11 -11
+12 -12
+13 -13
+14 -14
+15 -15
+16 -16
+17 -17
+18 -18
+19 -19
+20 -20
+21 -21
EOF
